DIMENSION: 15
EDGE_WEIGHT_TYPE: EXPLICIT
EDGE_WEIGHT_FORMAT: LOWER_DIAG_ROW 
EDGE_WEIGHT_SECTION

0														
29	0													
0	55	0												
0	0	0	0											
68	0	46	82	0										
0	0	0	0	0	0									
0	43	0	72	0	61	0								
42	0	0	0	0	0	0	0							
0	0	41	0	21	0	0	33	0						
0	0	0	0	0	0	0	15	0	0					
0	41	0	0	0	33	0	0	0	51	0				
74	0	0	51	0	0	37	0	46	21	0	0			
0	0	64	0	0	0	0	0	0	0	0	61	0		
0	52	0	0	65	0	0	0	51	0	59	0	62	0	
46	0	51	0	23	59	33	37	11	37	61	55	23	59	0
EOF